NAME          
ROWS
 N  OBJ
 L  c1
 L  c2
COLUMNS
    MARKER    'MARKER'                 'INTORG'
    x[1]      c1        830
    x[1]      c2        3
    x[1]      OBJ       -289
    x[2]      c1        322
    x[2]      c2        745
    x[2]      OBJ       -107
    x[3]      c1        642
    x[3]      c2        318
    x[3]      OBJ       -146
    x[4]      c1        644
    x[4]      c2        440
    x[4]      OBJ       -589
    x[5]      c1        800
    x[5]      c2        558
    x[5]      OBJ       -207
    x[6]      c1        119
    x[6]      c2        244
    x[6]      OBJ       -568
    x[7]      c1        536
    x[7]      c2        180
    x[7]      OBJ       -415
    x[8]      c1        364
    x[8]      c2        411
    x[8]      OBJ       -85
    x[9]      c1        279
    x[9]      c2        825
    x[9]      OBJ       -541
    x[10]     c1        714
    x[10]     c2        390
    x[10]     OBJ       -520
    x[11]     c1        519
    x[11]     c2        156
    x[11]     OBJ       -339
    x[12]     c1        216
    x[12]     c2        957
    x[12]     OBJ       -452
    x[13]     c1        371
    x[13]     c2        541
    x[13]     OBJ       -536
    x[14]     c1        67
    x[14]     c2        24
    x[14]     OBJ       -653
    x[15]     c1        220
    x[15]     c2        83
    x[15]     OBJ       -795
    x[16]     c1        585
    x[16]     c2        768
    x[16]     OBJ       -804
    x[17]     c1        34
    x[17]     c2        359
    x[17]     OBJ       -391
    x[18]     c1        199
    x[18]     c2        962
    x[18]     OBJ       -623
    x[19]     c1        148
    x[19]     c2        499
    x[19]     OBJ       -897
    x[20]     c1        45
    x[20]     c2        486
    x[20]     OBJ       -714
    x[21]     c1        586
    x[21]     c2        160
    x[21]     OBJ       -28
    x[22]     c1        773
    x[22]     c2        286
    x[22]     OBJ       -603
    x[23]     c1        21
    x[23]     c2        42
    x[23]     OBJ       -957
    x[24]     c1        277
    x[24]     c2        370
    x[24]     OBJ       -99
    x[25]     c1        164
    x[25]     c2        226
    x[25]     OBJ       -970
    x[26]     c1        528
    x[26]     c2        226
    x[26]     OBJ       -340
    x[27]     c1        876
    x[27]     c2        965
    x[27]     OBJ       -930
    x[28]     c1        825
    x[28]     c2        160
    x[28]     OBJ       -10
    x[29]     c1        226
    x[29]     c2        595
    x[29]     OBJ       -695
    x[30]     c1        551
    x[30]     c2        591
    x[30]     OBJ       -992
    x[31]     c1        769
    x[31]     c2        139
    x[31]     OBJ       -443
    x[32]     c1        900
    x[32]     c2        865
    x[32]     OBJ       -929
    x[33]     c1        516
    x[33]     c2        776
    x[33]     OBJ       -690
    x[34]     c1        576
    x[34]     c2        187
    x[34]     OBJ       -846
    x[35]     c1        393
    x[35]     c2        451
    x[35]     OBJ       -593
RHS
    rhs       c1        7818
    rhs       c2        7494
RANGES
BOUNDS
 BV bounds    x[1]
 BV bounds    x[2]
 BV bounds    x[3]
 BV bounds    x[4]
 BV bounds    x[5]
 BV bounds    x[6]
 BV bounds    x[7]
 BV bounds    x[8]
 BV bounds    x[9]
 BV bounds    x[10]
 BV bounds    x[11]
 BV bounds    x[12]
 BV bounds    x[13]
 BV bounds    x[14]
 BV bounds    x[15]
 BV bounds    x[16]
 BV bounds    x[17]
 BV bounds    x[18]
 BV bounds    x[19]
 BV bounds    x[20]
 BV bounds    x[21]
 BV bounds    x[22]
 BV bounds    x[23]
 BV bounds    x[24]
 BV bounds    x[25]
 BV bounds    x[26]
 BV bounds    x[27]
 BV bounds    x[28]
 BV bounds    x[29]
 BV bounds    x[30]
 BV bounds    x[31]
 BV bounds    x[32]
 BV bounds    x[33]
 BV bounds    x[34]
 BV bounds    x[35]
ENDATA
